NAME : tsp30_4.184.tour
COMMENT : Length = 184
COMMENT : Found by LKH [Keld Helsgaun]
TYPE : TOUR
DIMENSION : 30
TOUR_SECTION
1
14
21
3
28
24
22
12
17
19
9
27
7
13
8
18
10
16
26
4
23
30
11
15
6
5
25
20
2
29
-1
EOF
